c preprocessed version of FlowerSnark, 20 vertices, 30 edges
p td 20 30
0 1
0 14
0 15
1 11
1 2
10 11
11 12
12 13
12 19
13 14
15 16
15 19
16 17
17 18
18 19
2 3
2 7
3 16
3 4
4 14
4 5
5 10
5 6
6 17
6 7
7 8
8 13
8 9
9 10
9 18
